<number of tasks>
100

<cycle time>
1000

<order strength>
0.604


<task times>
1 97
2 100
3 82
4 49
5 211
6 177
7 336
8 236
9 33
10 70
11 330
12 76
13 204
14 76
15 88
16 154
17 180
18 76
19 124
20 117
21 344
22 254
23 194
24 102
25 36
26 198
27 129
28 54
29 50
30 196
31 287
32 122
33 78
34 143
35 146
36 123
37 127
38 119
39 165
40 26
41 172
42 277
43 116
44 115
45 129
46 74
47 149
48 122
49 182
50 44
51 98
52 65
53 86
54 40
55 194
56 134
57 206
58 97
59 26
60 156
61 188
62 84
63 107
64 66
65 161
66 87
67 67
68 102
69 151
70 158
71 132
72 97
73 348
74 123
75 46
76 38
77 194
78 111
79 221
80 304
81 45
82 209
83 110
84 134
85 93
86 81
87 108
88 262
89 233
90 133
91 368
92 236
93 60
94 33
95 218
96 33
97 48
98 101
99 194
100 349

<precedence relations>
1,8
2,6
2,9
3,7
3,9
4,9
5,9
6,10
7,12
8,11
9,13
9,14
10,17
11,15
12,16
13,17
14,17
15,18
16,19
17,20
17,21
17,22
18,23
19,24
20,25
20,26
20,27
20,28
20,29
20,30
20,31
21,25
21,26
21,27
21,28
21,29
21,30
21,31
22,25
22,26
22,27
22,28
22,30
22,31
23,34
24,36
25,32
25,37
26,33
26,37
26,38
27,35
27,37
27,38
28,37
29,88
29,90
29,91
29,93
29,94
30,37
30,38
31,37
31,38
32,39
33,41
34,40
35,43
36,44
37,42
37,44
37,45
38,44
38,45
39,46
40,47
41,50
42,48
43,51
44,49
44,50
44,51
45,50
45,51
46,52
47,54
48,55
49,53
50,54
50,55
50,56
50,57
51,54
51,55
51,57
52,58
53,59
54,61
54,63
54,74
55,60
55,61
55,62
55,63
56,60
56,63
56,68
57,60
57,93
57,95
58,67
59,68
60,64
60,69
60,94
60,96
61,65
61,66
61,76
61,77
62,66
62,67
62,68
63,66
63,67
64,70
65,73
66,71
66,72
66,75
67,77
68,74
68,76
68,77
69,98
70,78
71,79
72,80
73,82
74,81
74,83
74,95
75,84
76,90
76,93
76,94
77,94
78,88
79,85
80,88
81,86
82,89
83,87
84,90
84,91
85,93
86,94
87,92
90,95
90,96
92,97
94,100
95,98
95,100
96,98
96,99

<end>
